c Result of efficient AIG-to-CNF conversion using package CNF
p cnf 26 74
-2 3 15 0
-2 -3 -15 0
2 -3 15 0
2 3 -15 0
-3 -4 -12 0
-3 4 12 0
3 4 -12 0
3 -4 12 0
-4 5 8 0
-4 -5 -8 0
4 -5 8 0
4 5 -8 0
-5 -6 -7 0
-5 6 7 0
5 6 -7 0
5 -6 7 0
6 -22 -23 0
-6 22 0
-6 23 0
7 -21 -25 0
-7 21 0
-7 25 0
-8 9 11 0
-8 10 11 0
-8 9 10 0
8 -9 -10 0
8 -10 -11 0
8 -9 -11 0
9 -23 -24 0
-9 23 0
-9 24 0
10 -21 -22 0
-10 21 0
-10 22 0
11 -20 -25 0
-11 20 0
-11 25 0
12 -11 13 -14 0
12 11 -13 -14 0
-12 14 0
-12 -11 -13 0
-12 11 13 0
-13 -9 -10 0
-13 9 10 0
13 9 -10 0
13 -9 10 0
14 -20 -21 -22 -24 0
-14 24 0
-14 20 0
-14 22 0
-14 21 0
-15 16 18 0
-15 -16 -18 0
15 -16 18 0
15 16 -18 0
-16 -5 -17 0
-16 5 17 0
16 5 -17 0
16 -5 17 0
17 -10 -11 0
-17 10 0
-17 11 0
-18 9 19 0
-18 14 19 0
-18 9 14 0
18 -9 -14 0
18 -14 -19 0
18 -9 -19 0
19 10 -11 0
19 -10 11 0
-19 -10 -11 0
-19 10 11 0
-26 0
2 0

